src/RACER/swarm_exploration/utils/lkh_mtsp_solver/resource/amtsp3_2.atsp
NAME : pairopt
TYPE : ACVRP
DIMENSION : 8
EDGE_WEIGHT_TYPE : EXPLICIT
EDGE_WEIGHT_FORMAT : FULL_MATRIX
CAPACITY : 1657
VEHICLES : 2
EDGE_WEIGHT_SECTION
100000 -100000 -100000 100000 100000 100000 100000 100000 
100000 100000 1000000 3182 2841 2513 3065 2877 
100000 1000000 100000 2774 2908 2499 3127 2988 
0 0 0 100000 280 4890 193 268 
0 0 0 280 100000 4554 161 231 
0 0 0 4890 4554 100000 4778 4578 
0 0 0 193 161 4778 100000 270 
0 0 0 268 231 4578 270 100000 
DEMAND_SECTION
1 0
2 0
3 0
4 947
5 238
6 138
7 385
8 500
DEPOT_SECTION
1
EOF