src/RACER/swarm_exploration/utils/lkh_mtsp_solver/resource/amtsp3_2.tour
NAME : pairopt.-197038.tour
COMMENT : Length = -197038
COMMENT : Found by LKH-3 [Keld Helsgaun] Tue May 13 10:40:37 2025
TYPE : TOUR
DIMENSION : 7
TOUR_SECTION
1
3
4
5
7
2
6
-1
EOF
